32      4       
16      12      19      16      
0       0       0       0       0       3       2       4       6       
4       9       0       0       12      2       3       5       
10      0       12      15      0       2       7       10      
9       0       0       18      1       2       7       10      
1       7       1       0       0       3       8       9       10      
6       0       0       8       10      1       7       
5       0       0       8       9       2       8       9       
7       8       10      0       0       1       11      
7       0       5       0       4       1       11      
7       0       5       15      0       1       11      
8       7       1       0       0       2       12      14      
5       0       0       9       11      1       13      
6       4       9       0       0       2       15      16      
2       0       6       4       0       2       16      17      
2       13      0       0       1       2       17      23      
8       0       0       1       8       4       19      20      21      23      
9       0       0       10      12      1       18      
3       0       2       0       14      3       19      20      21      
10      9       0       0       6       2       22      24      
5       11      0       8       0       3       24      25      29      
2       11      0       5       0       3       24      25      29      
4       0       9       0       10      3       25      28      29      
1       0       1       0       1       2       24      29      
7       8       5       0       0       3       26      27      28      
4       2       8       0       0       2       26      27      
3       1       0       15      0       2       30      31      
10      1       0       7       0       2       30      31      
10      0       5       0       7       2       30      31      
5       0       11      1       0       2       30      31      
5       13      0       0       14      1       32      
4       16      0       19      0       1       32      
0       0       0       0       0       0       
